Constructor : 
	simulation seed: 11
	output path: ./out/Small
	input data folder ./in/MILPexp
	output data folder ./out/Small/S5D3U3/11
	loading data from ./in/MILPexp
	initializing MILP Solver
Set parameter Username
Set parameter TimeLimit to value 86400
Set parameter MemLimit to value 64
Set parameter Method to value 0
Academic license - for non-commercial use only - expires 2023-04-21
	 Setting up MILP
6, 6
	 Saving MILP in ./out/Small/S5D3U3/11/MILP-primal/model.lp
Warning: linear constraint 49815 and linear constraint 152310 have the same name "socInit_1"
Gurobi Optimizer version 9.5.1 build v9.5.1rc2 (linux64)
Thread count: 24 physical cores, 48 logical processors, using up to 24 threads
Optimize a model with 153789 rows, 691 columns and 925593 nonzeros
Model fingerprint: 0x32bffbd7
Variable types: 43 continuous, 648 integer (648 binary)
Coefficient statistics:
  Matrix range     [1e+00, 2e+05]
  Objective range  [1e+00, 1e+00]
  Bounds range     [1e+00, 1e+00]
  RHS range        [1e+00, 1e+06]
Presolve removed 27345 rows and 117 columns
Presolve time: 2.27s
Presolved: 126444 rows, 574 columns, 762044 nonzeros
Variable types: 34 continuous, 540 integer (540 binary)

Root relaxation: objective 6.666667e+00, 6108 iterations, 1.56 seconds (1.28 work units)
Total elapsed time = 6.24s

    Nodes    |    Current Node    |     Objective Bounds      |     Work
 Expl Unexpl |  Obj  Depth IntInf | Incumbent    BestBd   Gap | It/Node Time

     0     0    6.66667    0  103          -    6.66667      -     -    6s
     0     0   15.57693    0  172          -   15.57693      -     -   10s
     0     0   15.57693    0  175          -   15.57693      -     -   10s
     0     0   21.01036    0  164          -   21.01036      -     -   17s
     0     0   21.01036    0  162          -   21.01036      -     -   35s
     0     0   26.53113    0  128          -   26.53113      -     -   39s
     0     0   26.53113    0  127          -   26.53113      -     -   40s
     0     0   26.97315    0  108          -   26.97315      -     -   43s
     0     0   27.05431    0  110          -   27.05431      -     -   44s
     0     0   27.05431    0  110          -   27.05431      -     -   45s
     0     0   27.31942    0  125          -   27.31942      -     -   48s
     0     0   27.31942    0  122          -   27.31942      -     -   49s
     0     0   27.32473    0  122          -   27.32473      -     -   53s
     0     0   27.32473    0  126          -   27.32473      -     -   55s
     0     0   27.33215    0  116          -   27.33215      -     -   57s
     0     0   27.33215    0  109          -   27.33215      -     -   58s
     0     0   27.33215    0  114          -   27.33215      -     -   59s
     0     0   27.33215    0  110          -   27.33215      -     -   61s
     0     0   27.33215    0  113          -   27.33215      -     -   69s
     0     0   27.33215    0  122          -   27.33215      -     -   70s
     0     0   27.33215    0  106          -   27.33215      -     -   79s
     0     0   27.33215    0  112          -   27.33215      -     -   81s
     0     0   27.33215    0  109          -   27.33215      -     -   93s
     0     0   27.33215    0  103          -   27.33215      -     -   96s
     0     0   27.33215    0  108          -   27.33215      -     -  108s
     0     0   27.33215    0  108          -   27.33215      -     -  135s
     0     2   28.89019    0   95          -   28.89019      -     -  175s
     1     5   28.89019    1   92          -   28.89019      -   255  180s
     3     8   28.89019    2  101          -   28.89019      -   215  189s
     7    16   29.20291    3   94          -   29.20291      -   148  199s
    15    32   29.85631    4  115          -   29.85631      -   193  209s
    31    56   30.04235    5  112          -   30.04235      -   258  219s
    55    80   30.04317    6  111          -   30.04235      -   274  224s
    79   104   30.04840    7  122          -   30.04235      -   278  228s
   103   128   30.98759    8  115          -   30.04235      -   253  230s
   127   163   34.85996    8  120          -   30.04235      -   221  236s
   202   235   32.67419    9  117          -   30.04235      -   176  244s
   238   270   33.30113   10  151          -   30.04235      -   161  248s
   273   318   35.62153   11  115          -   30.04235      -   156  251s
   376   426   34.47213   12  122          -   30.04235      -   130  258s
   434   466   37.72727   13   96          -   30.04235      -   122  266s
   492   518   36.45634   14  130          -   30.04235      -   116  277s
   561   559   43.24247   15  103          -   30.04235      -   110  285s
   697   664   50.44595   16  104          -   30.04235      -   102  291s
   785   711   47.23934   17  124          -   30.04235      -  95.2  295s
   981   772   53.05689   19   95          -   30.04235      -  86.7  304s
  1085   820   64.64216   21   90          -   30.04235      -  85.1  311s
  1173   866  739.04762   22   99          -   30.04235      -  86.1  317s
  1258   913 infeasible   23               -   30.04235      -  85.9  324s
  1350   967  716.24368   25   86          -   30.04235      -  86.7  331s
  1417  1007 1023.24778   27   65          -   30.04235      -  88.3  338s
* 1452  1007              37    2543.0096874   30.04235  98.8%  89.5  338s
  1486  1033 1011.58112   27   73 2543.00969   30.04235  98.8%  91.6  348s
H 1544  1033                    2123.1622320   30.04235  98.6%  92.2  348s
  1569  1078 1021.66961   28  109 2123.16223   30.04235  98.6%  93.2  354s
  1628  1105 1013.50649   28  104 2123.16223   30.04235  98.6%  96.6  361s
H 1629  1105                    1531.4285714   30.04235  98.0%  96.5  361s
  1719  1120 1030.16697   29   93 1531.42857   30.04235  98.0%  97.1  371s
  1813  1134 infeasible   29      1531.42857   30.04235  98.0%   100  382s
  1873  1165 infeasible   31      1531.42857   30.04235  98.0%   100  389s
